1189.79 0
0 115 114 106 107 108 109 120 0
0 19 65 130 119 117 131 116 132 133 78 74 73 0
0 70 69 110 111 125 112 126 124 123 122 121 127 128 129 113 81 18 17 118 46 0
0 105 97 96 38 44 43 40 3 41 42 2 4 5 6 7 8 9 10 12 11 88 14 15 13 16 90 89 87 86 84 85 83 20 82 0
0 66 71 33 80 68 67 79 63 64 77 76 134 32 75 47 72 0
0 31 30 58 57 56 103 55 54 52 51 50 49 34 48 1 0
0 59 60 61 62 53 102 104 101 100 98 99 35 36 37 95 39 45 94 93 29 92 28 27 26 25 21 91 22 24 23 0